NAME : A-n60-k9-30
TYPE : VRP-D
DIMENSION : 30
CAPACITY : 100
NODE_COORD_SECTION 
 1 27 93
 2 33 27
 3 29 39
 4 7 81
 5 1 59
 6 49 9
 7 21 53
 8 79 89
 9 81 83
 10 85 11
 11 45 9
 12 7 65
 13 95 27
 14 81 85
 15 37 81
 16 69 69
 17 15 95
 18 89 75
 19 33 93
 20 57 83
 21 11 95
 22 3 57
 23 45 11
 24 43 61
 25 35 43
 26 19 83
 27 83 69
 28 85 77
 29 19 39
 30 83 87
DEMAND_SECTION 
1 0 
2 16 
3 2 
4 7 
5 11 
6 9 
7 17 
8 21 
9 23 
10 10 
11 6 
12 19 
13 18 
14 20 
15 13 
16 5 
17 11 
18 24 
19 2 
20 3 
21 1 
22 5 
23 20 
24 23 
25 24 
26 18 
27 19 
28 2 
29 17 
30 17 
DEPOT_SECTION 
 1  
 -1  
EOF 
